\ Equation counts
\     Total        E        G        L        N        X        C        B
\	0	0	0	0
\
\ Variable counts
\                  x        b        i      s1s      s2s       sc       si
\     Total     cont   binary  integer     sos1     sos2    scont     sint
\	30	30

\ Nonzero counts
\     Total    const       NL      DLL
\
\
Minimize
 obj: [ - 16.5 x_1 * x_1 - 14.5 x_1 * x_2 - 5.5 x_1 * x_4 + 14.5 x_1 * x_5 + 21.5 x_1 * x_6 + 19.0 x_1 * x_7 + 17.0 x_1 * x_9 + 18.0 x_1 * x_11 - 12.0 x_1 * x_12 - 11.5 x_1 * x_13 - 24.0 x_1 * x_15 - 8.0 x_1 * x_19 + 5.0 x_1 * x_20 + 13.0 x_1 * x_21 + 16.0 x_1 * x_22 - 1.0 x_1 * x_23 - 19.5 x_1 * x_25 + 12.5 x_1 * x_26 + 7.0 x_1 * x_27 - 23.5 x_1 * x_28 + 9.5 x_1 * x_29 + 24.5 x_1 * x_30 - 14.5 x_2 * x_1 - 11.5 x_2 * x_2 + 3.5 x_2 * x_3 + 6.5 x_2 * x_4 - 5.5 x_2 * x_5 - 18.0 x_2 * x_6 - 13.0 x_2 * x_7 + 10.5 x_2 * x_8 - 20.5 x_2 * x_10 - 22.0 x_2 * x_11 + 6.5 x_2 * x_12 + 13.0 x_2 * x_13 - 6.5 x_2 * x_14 + 5.5 x_2 * x_17 - 22.5 x_2 * x_18 + 10.0 x_2 * x_19 + 24.5 x_2 * x_20 + 4.0 x_2 * x_21 + 21.0 x_2 * x_22 + 11.0 x_2 * x_23 - 22.0 x_2 * x_24 + 13.0 x_2 * x_25 - 13.0 x_2 * x_27 + 19.0 x_2 * x_28 + 16.0 x_2 * x_30 + 3.5 x_3 * x_2 + 12.0 x_3 * x_3 - 19.5 x_3 * x_4 + 19.5 x_3 * x_5 + 7.0 x_3 * x_6 - 17.5 x_3 * x_7 - 20.0 x_3 * x_9 - 15.5 x_3 * x_10 - 10.0 x_3 * x_12 - 5.5 x_3 * x_14 + 20.0 x_3 * x_15 + 4.0 x_3 * x_16 + 0.5 x_3 * x_17 - 7.0 x_3 * x_18 - 3.5 x_3 * x_19 - 2.5 x_3 * x_20 + 12.5 x_3 * x_21 + 19.0 x_3 * x_22 + 12.5 x_3 * x_23 - 22.0 x_3 * x_24 + 13.5 x_3 * x_26 + 22.5 x_3 * x_27 + 17.0 x_3 * x_29 - 5.5 x_4 * x_1 + 6.5 x_4 * x_2 - 19.5 x_4 * x_3 + 17.5 x_4 * x_5 + 3.0 x_4 * x_6 + 19.0 x_4 * x_7 + 3.5 x_4 * x_8 + 20.0 x_4 * x_9 + 4.5 x_4 * x_10 - 16.0 x_4 * x_12 + 9.5 x_4 * x_13 + 20.5 x_4 * x_15 + 7.5 x_4 * x_16 - 8.5 x_4 * x_17 - 21.5 x_4 * x_18 + 23.0 x_4 * x_19 + 12.5 x_4 * x_20 - 11.0 x_4 * x_21 + 6.0 x_4 * x_22 - 17.5 x_4 * x_23 - 17.5 x_4 * x_24 - 13.0 x_4 * x_25 - 21.5 x_4 * x_26 + 4.0 x_4 * x_27 + 15.5 x_4 * x_28 - 16.5 x_4 * x_30 + 14.5 x_5 * x_1 - 5.5 x_5 * x_2 + 19.5 x_5 * x_3 + 17.5 x_5 * x_4 - 7.5 x_5 * x_6 - 4.0 x_5 * x_7 + 1.0 x_5 * x_8 - 6.0 x_5 * x_10 + 17.0 x_5 * x_11 + 1.0 x_5 * x_12 - 6.5 x_5 * x_14 - 17.5 x_5 * x_15 + 2.5 x_5 * x_16 - 1.5 x_5 * x_17 - 11.0 x_5 * x_18 + 22.0 x_5 * x_19 + 2.5 x_5 * x_20 + 4.0 x_5 * x_21 + 7.5 x_5 * x_22 + 15.0 x_5 * x_23 + 18.5 x_5 * x_24 + 15.5 x_5 * x_25 + 14.5 x_5 * x_26 + 17.5 x_5 * x_27 + 24.5 x_5 * x_28 + 13.0 x_5 * x_29 - 15.0 x_5 * x_30 + 21.5 x_6 * x_1 - 18.0 x_6 * x_2 + 7.0 x_6 * x_3 + 3.0 x_6 * x_4 - 7.5 x_6 * x_5 - 9.5 x_6 * x_6 + 24.5 x_6 * x_8 - 20.5 x_6 * x_9 - 19.0 x_6 * x_10 - 8.0 x_6 * x_12 + 3.0 x_6 * x_13 + 0.5 x_6 * x_14 - 3.5 x_6 * x_15 - 5.0 x_6 * x_16 + 14.5 x_6 * x_17 - 16.0 x_6 * x_18 - 1.0 x_6 * x_19 - 7.5 x_6 * x_20 - 10.0 x_6 * x_22 + 7.5 x_6 * x_23 + 17.0 x_6 * x_24 - 5.5 x_6 * x_25 + 2.0 x_6 * x_26 + 6.5 x_6 * x_28 + 10.0 x_6 * x_29 + 21.5 x_6 * x_30 + 19.0 x_7 * x_1 - 13.0 x_7 * x_2 - 17.5 x_7 * x_3 + 19.0 x_7 * x_4 - 4.0 x_7 * x_5 - 22.5 x_7 * x_8 + 3.0 x_7 * x_9 + 6.0 x_7 * x_10 - 6.0 x_7 * x_13 - 22.5 x_7 * x_16 - 18.5 x_7 * x_17 - 7.0 x_7 * x_18 - 7.5 x_7 * x_19 - 20.0 x_7 * x_20 + 8.5 x_7 * x_21 + 23.5 x_7 * x_23 - 19.0 x_7 * x_24 - 20.5 x_7 * x_25 + 13.5 x_7 * x_26 + 8.5 x_7 * x_27 + 6.5 x_7 * x_28 + 7.5 x_7 * x_29 + 10.5 x_8 * x_2 + 3.5 x_8 * x_4 + 1.0 x_8 * x_5 + 24.5 x_8 * x_6 - 22.5 x_8 * x_7 - 18.5 x_8 * x_8 + 10.0 x_8 * x_9 + 0.5 x_8 * x_14 - 24.0 x_8 * x_15 + 7.0 x_8 * x_16 + 22.5 x_8 * x_17 - 17.5 x_8 * x_18 - 19.0 x_8 * x_19 + 21.0 x_8 * x_23 - 19.0 x_8 * x_27 - 11.0 x_8 * x_28 + 17.5 x_8 * x_29 - 1.5 x_8 * x_30 + 17.0 x_9 * x_1 - 20.0 x_9 * x_3 + 20.0 x_9 * x_4 - 20.5 x_9 * x_6 + 3.0 x_9 * x_7 + 10.0 x_9 * x_8 + 22.5 x_9 * x_9 + 8.5 x_9 * x_11 + 23.5 x_9 * x_12 - 5.5 x_9 * x_13 + 8.5 x_9 * x_14 + 14.0 x_9 * x_16 - 8.0 x_9 * x_17 - 21.0 x_9 * x_18 + 1.0 x_9 * x_19 + 12.0 x_9 * x_20 + 21.5 x_9 * x_21 - 4.0 x_9 * x_22 + 17.5 x_9 * x_23 - 16.5 x_9 * x_24 + 0.5 x_9 * x_25 - 22.5 x_9 * x_26 + 11.0 x_9 * x_28 + 4.5 x_9 * x_29 + 24.0 x_9 * x_30 - 20.5 x_10 * x_2 - 15.5 x_10 * x_3 + 4.5 x_10 * x_4 - 6.0 x_10 * x_5 - 19.0 x_10 * x_6 + 6.0 x_10 * x_7 + 17.0 x_10 * x_11 - 13.5 x_10 * x_12 + 5.5 x_10 * x_13 - 17.0 x_10 * x_14 + 11.0 x_10 * x_16 + 20.5 x_10 * x_17 - 20.5 x_10 * x_19 - 5.0 x_10 * x_21 - 5.0 x_10 * x_23 + 7.0 x_10 * x_24 + 16.5 x_10 * x_25 - 17.0 x_10 * x_26 + 1.5 x_10 * x_27 - 8.5 x_10 * x_28 + 10.5 x_10 * x_30 + 18.0 x_11 * x_1 - 22.0 x_11 * x_2 + 17.0 x_11 * x_5 + 8.5 x_11 * x_9 + 17.0 x_11 * x_10 + 24.0 x_11 * x_11 - 22.0 x_11 * x_12 - 12.0 x_11 * x_13 + 5.0 x_11 * x_14 + 10.0 x_11 * x_15 - 11.0 x_11 * x_16 + 14.0 x_11 * x_17 - 11.5 x_11 * x_18 + 4.5 x_11 * x_19 - 19.5 x_11 * x_22 + 18.5 x_11 * x_23 - 1.5 x_11 * x_25 + 1.5 x_11 * x_27 + 9.0 x_11 * x_28 - 14.5 x_11 * x_29 - 12.0 x_12 * x_1 + 6.5 x_12 * x_2 - 10.0 x_12 * x_3 - 16.0 x_12 * x_4 + 1.0 x_12 * x_5 - 8.0 x_12 * x_6 + 23.5 x_12 * x_9 - 13.5 x_12 * x_10 - 22.0 x_12 * x_11 - 5.0 x_12 * x_12 + 14.5 x_12 * x_14 - 17.0 x_12 * x_17 + 15.5 x_12 * x_18 + 18.5 x_12 * x_19 + 24.5 x_12 * x_20 - 5.5 x_12 * x_21 - 6.0 x_12 * x_22 - 4.0 x_12 * x_23 - 22.0 x_12 * x_24 + 22.0 x_12 * x_25 + 13.5 x_12 * x_26 - 5.5 x_12 * x_29 + 1.0 x_12 * x_30 - 11.5 x_13 * x_1 + 13.0 x_13 * x_2 + 9.5 x_13 * x_4 + 3.0 x_13 * x_6 - 6.0 x_13 * x_7 - 5.5 x_13 * x_9 + 5.5 x_13 * x_10 - 12.0 x_13 * x_11 - 24.5 x_13 * x_13 - 4.5 x_13 * x_14 - 19.0 x_13 * x_16 + 5.0 x_13 * x_17 + 18.5 x_13 * x_18 - 12.5 x_13 * x_19 - 20.5 x_13 * x_20 - 4.0 x_13 * x_21 + 0.5 x_13 * x_22 + 20.0 x_13 * x_23 - 9.0 x_13 * x_24 + 10.5 x_13 * x_27 - 14.0 x_13 * x_29 - 6.5 x_14 * x_2 - 5.5 x_14 * x_3 - 6.5 x_14 * x_5 + 0.5 x_14 * x_6 + 0.5 x_14 * x_8 + 8.5 x_14 * x_9 - 17.0 x_14 * x_10 + 5.0 x_14 * x_11 + 14.5 x_14 * x_12 - 4.5 x_14 * x_13 - 0.5 x_14 * x_14 + 7.0 x_14 * x_15 - 4.5 x_14 * x_16 - 22.0 x_14 * x_17 + 8.5 x_14 * x_18 + 3.0 x_14 * x_19 + 10.0 x_14 * x_21 - 19.0 x_14 * x_22 + 19.0 x_14 * x_23 + 12.0 x_14 * x_24 - 2.5 x_14 * x_25 - 11.0 x_14 * x_26 + 23.5 x_14 * x_27 - 23.5 x_14 * x_28 + 2.5 x_14 * x_29 - 8.5 x_14 * x_30 - 24.0 x_15 * x_1 + 20.0 x_15 * x_3 + 20.5 x_15 * x_4 - 17.5 x_15 * x_5 - 3.5 x_15 * x_6 - 24.0 x_15 * x_8 + 10.0 x_15 * x_11 + 7.0 x_15 * x_14 - 24.0 x_15 * x_15 - 20.0 x_15 * x_17 - 19.0 x_15 * x_18 - 3.0 x_15 * x_19 - 21.5 x_15 * x_20 + 8.0 x_15 * x_21 - 3.0 x_15 * x_22 + 6.5 x_15 * x_23 - 1.0 x_15 * x_24 + 15.5 x_15 * x_25 + 0.5 x_15 * x_26 - 8.0 x_15 * x_29 + 3.5 x_15 * x_30 + 4.0 x_16 * x_3 + 7.5 x_16 * x_4 + 2.5 x_16 * x_5 - 5.0 x_16 * x_6 - 22.5 x_16 * x_7 + 7.0 x_16 * x_8 + 14.0 x_16 * x_9 + 11.0 x_16 * x_10 - 11.0 x_16 * x_11 - 19.0 x_16 * x_13 - 4.5 x_16 * x_14 - 14.5 x_16 * x_17 + 19.5 x_16 * x_18 - 24.5 x_16 * x_19 - 18.0 x_16 * x_20 + 18.5 x_16 * x_21 + 7.0 x_16 * x_22 - 1.0 x_16 * x_23 + 20.0 x_16 * x_25 - 7.5 x_16 * x_26 - 22.5 x_16 * x_27 - 24.5 x_16 * x_28 - 20.0 x_16 * x_29 + 5.5 x_17 * x_2 + 0.5 x_17 * x_3 - 8.5 x_17 * x_4 - 1.5 x_17 * x_5 + 14.5 x_17 * x_6 - 18.5 x_17 * x_7 + 22.5 x_17 * x_8 - 8.0 x_17 * x_9 + 20.5 x_17 * x_10 + 14.0 x_17 * x_11 - 17.0 x_17 * x_12 + 5.0 x_17 * x_13 - 22.0 x_17 * x_14 - 20.0 x_17 * x_15 - 14.5 x_17 * x_16 - 6.0 x_17 * x_17 + 8.0 x_17 * x_18 + 4.0 x_17 * x_19 + 5.0 x_17 * x_20 + 10.0 x_17 * x_21 - 22.5 x_17 * x_22 - 24.5 x_17 * x_24 - 9.5 x_17 * x_26 - 8.0 x_17 * x_27 + 17.0 x_17 * x_28 + 3.0 x_17 * x_29 - 20.0 x_17 * x_30 - 22.5 x_18 * x_2 - 7.0 x_18 * x_3 - 21.5 x_18 * x_4 - 11.0 x_18 * x_5 - 16.0 x_18 * x_6 - 7.0 x_18 * x_7 - 17.5 x_18 * x_8 - 21.0 x_18 * x_9 - 11.5 x_18 * x_11 + 15.5 x_18 * x_12 + 18.5 x_18 * x_13 + 8.5 x_18 * x_14 - 19.0 x_18 * x_15 + 19.5 x_18 * x_16 + 8.0 x_18 * x_17 + 5.5 x_18 * x_18 - 15.0 x_18 * x_19 + 23.5 x_18 * x_20 + 8.5 x_18 * x_22 + 8.5 x_18 * x_23 + 21.5 x_18 * x_24 - 13.5 x_18 * x_25 - 17.5 x_18 * x_26 + 2.0 x_18 * x_27 + 19.0 x_18 * x_29 + 2.5 x_18 * x_30 - 8.0 x_19 * x_1 + 10.0 x_19 * x_2 - 3.5 x_19 * x_3 + 23.0 x_19 * x_4 + 22.0 x_19 * x_5 - 1.0 x_19 * x_6 - 7.5 x_19 * x_7 - 19.0 x_19 * x_8 + 1.0 x_19 * x_9 - 20.5 x_19 * x_10 + 4.5 x_19 * x_11 + 18.5 x_19 * x_12 - 12.5 x_19 * x_13 + 3.0 x_19 * x_14 - 3.0 x_19 * x_15 - 24.5 x_19 * x_16 + 4.0 x_19 * x_17 - 15.0 x_19 * x_18 + 8.0 x_19 * x_19 - 2.0 x_19 * x_20 - 22.5 x_19 * x_21 - 17.5 x_19 * x_22 + 1.5 x_19 * x_23 + 17.0 x_19 * x_24 - 10.5 x_19 * x_25 + 8.0 x_19 * x_26 - 21.0 x_19 * x_27 + 12.5 x_19 * x_29 - 3.5 x_19 * x_30 + 5.0 x_20 * x_1 + 24.5 x_20 * x_2 - 2.5 x_20 * x_3 + 12.5 x_20 * x_4 + 2.5 x_20 * x_5 - 7.5 x_20 * x_6 - 20.0 x_20 * x_7 + 12.0 x_20 * x_9 + 24.5 x_20 * x_12 - 20.5 x_20 * x_13 - 21.5 x_20 * x_15 - 18.0 x_20 * x_16 + 5.0 x_20 * x_17 + 23.5 x_20 * x_18 - 2.0 x_20 * x_19 + 17.5 x_20 * x_20 - 20.0 x_20 * x_21 + 20.0 x_20 * x_22 - 18.5 x_20 * x_23 + 21.5 x_20 * x_24 + 21.5 x_20 * x_26 - 13.0 x_20 * x_27 - 17.0 x_20 * x_28 + 8.5 x_20 * x_29 + 13.0 x_21 * x_1 + 4.0 x_21 * x_2 + 12.5 x_21 * x_3 - 11.0 x_21 * x_4 + 4.0 x_21 * x_5 + 8.5 x_21 * x_7 + 21.5 x_21 * x_9 - 5.0 x_21 * x_10 - 5.5 x_21 * x_12 - 4.0 x_21 * x_13 + 10.0 x_21 * x_14 + 8.0 x_21 * x_15 + 18.5 x_21 * x_16 + 10.0 x_21 * x_17 - 22.5 x_21 * x_19 - 20.0 x_21 * x_20 - 3.0 x_21 * x_21 + 8.5 x_21 * x_22 + 13.5 x_21 * x_24 + 3.0 x_21 * x_26 + 20.0 x_21 * x_27 + 22.5 x_21 * x_28 + 21.0 x_21 * x_30 + 16.0 x_22 * x_1 + 21.0 x_22 * x_2 + 19.0 x_22 * x_3 + 6.0 x_22 * x_4 + 7.5 x_22 * x_5 - 10.0 x_22 * x_6 - 4.0 x_22 * x_9 - 19.5 x_22 * x_11 - 6.0 x_22 * x_12 + 0.5 x_22 * x_13 - 19.0 x_22 * x_14 - 3.0 x_22 * x_15 + 7.0 x_22 * x_16 - 22.5 x_22 * x_17 + 8.5 x_22 * x_18 - 17.5 x_22 * x_19 + 20.0 x_22 * x_20 + 8.5 x_22 * x_21 + 24.5 x_22 * x_23 + 11.5 x_22 * x_24 + 21.0 x_22 * x_25 - 14.0 x_22 * x_26 + 9.5 x_22 * x_27 + 15.0 x_22 * x_29 - 1.0 x_23 * x_1 + 11.0 x_23 * x_2 + 12.5 x_23 * x_3 - 17.5 x_23 * x_4 + 15.0 x_23 * x_5 + 7.5 x_23 * x_6 + 23.5 x_23 * x_7 + 21.0 x_23 * x_8 + 17.5 x_23 * x_9 - 5.0 x_23 * x_10 + 18.5 x_23 * x_11 - 4.0 x_23 * x_12 + 20.0 x_23 * x_13 + 19.0 x_23 * x_14 + 6.5 x_23 * x_15 - 1.0 x_23 * x_16 + 8.5 x_23 * x_18 + 1.5 x_23 * x_19 - 18.5 x_23 * x_20 + 24.5 x_23 * x_22 - 16.0 x_23 * x_23 - 20.5 x_23 * x_25 + 1.5 x_23 * x_26 - 18.5 x_23 * x_27 - 3.5 x_23 * x_29 - 22.0 x_24 * x_2 - 22.0 x_24 * x_3 - 17.5 x_24 * x_4 + 18.5 x_24 * x_5 + 17.0 x_24 * x_6 - 19.0 x_24 * x_7 - 16.5 x_24 * x_9 + 7.0 x_24 * x_10 - 22.0 x_24 * x_12 - 9.0 x_24 * x_13 + 12.0 x_24 * x_14 - 1.0 x_24 * x_15 - 24.5 x_24 * x_17 + 21.5 x_24 * x_18 + 17.0 x_24 * x_19 + 21.5 x_24 * x_20 + 13.5 x_24 * x_21 + 11.5 x_24 * x_22 + 9.5 x_24 * x_24 - 7.0 x_24 * x_25 + 6.5 x_24 * x_26 + 21.0 x_24 * x_27 - 11.0 x_24 * x_28 - 16.5 x_24 * x_29 + 8.0 x_24 * x_30 - 19.5 x_25 * x_1 + 13.0 x_25 * x_2 - 13.0 x_25 * x_4 + 15.5 x_25 * x_5 - 5.5 x_25 * x_6 - 20.5 x_25 * x_7 + 0.5 x_25 * x_9 + 16.5 x_25 * x_10 - 1.5 x_25 * x_11 + 22.0 x_25 * x_12 - 2.5 x_25 * x_14 + 15.5 x_25 * x_15 + 20.0 x_25 * x_16 - 13.5 x_25 * x_18 - 10.5 x_25 * x_19 + 21.0 x_25 * x_22 - 20.5 x_25 * x_23 - 7.0 x_25 * x_24 + 9.5 x_25 * x_25 + 16.5 x_25 * x_26 - 4.0 x_25 * x_27 - 3.0 x_25 * x_28 - 7.5 x_25 * x_29 + 5.0 x_25 * x_30 + 12.5 x_26 * x_1 + 13.5 x_26 * x_3 - 21.5 x_26 * x_4 + 14.5 x_26 * x_5 + 2.0 x_26 * x_6 + 13.5 x_26 * x_7 - 22.5 x_26 * x_9 - 17.0 x_26 * x_10 + 13.5 x_26 * x_12 - 11.0 x_26 * x_14 + 0.5 x_26 * x_15 - 7.5 x_26 * x_16 - 9.5 x_26 * x_17 - 17.5 x_26 * x_18 + 8.0 x_26 * x_19 + 21.5 x_26 * x_20 + 3.0 x_26 * x_21 - 14.0 x_26 * x_22 + 1.5 x_26 * x_23 + 6.5 x_26 * x_24 + 16.5 x_26 * x_25 - 5.0 x_26 * x_26 + 4.5 x_26 * x_28 - 13.5 x_26 * x_29 + 7.0 x_27 * x_1 - 13.0 x_27 * x_2 + 22.5 x_27 * x_3 + 4.0 x_27 * x_4 + 17.5 x_27 * x_5 + 8.5 x_27 * x_7 - 19.0 x_27 * x_8 + 1.5 x_27 * x_10 + 1.5 x_27 * x_11 + 10.5 x_27 * x_13 + 23.5 x_27 * x_14 - 22.5 x_27 * x_16 - 8.0 x_27 * x_17 + 2.0 x_27 * x_18 - 21.0 x_27 * x_19 - 13.0 x_27 * x_20 + 20.0 x_27 * x_21 + 9.5 x_27 * x_22 - 18.5 x_27 * x_23 + 21.0 x_27 * x_24 - 4.0 x_27 * x_25 + 16.0 x_27 * x_27 + 19.5 x_27 * x_28 + 16.5 x_27 * x_30 - 23.5 x_28 * x_1 + 19.0 x_28 * x_2 + 15.5 x_28 * x_4 + 24.5 x_28 * x_5 + 6.5 x_28 * x_6 + 6.5 x_28 * x_7 - 11.0 x_28 * x_8 + 11.0 x_28 * x_9 - 8.5 x_28 * x_10 + 9.0 x_28 * x_11 - 23.5 x_28 * x_14 - 24.5 x_28 * x_16 + 17.0 x_28 * x_17 - 17.0 x_28 * x_20 + 22.5 x_28 * x_21 - 11.0 x_28 * x_24 - 3.0 x_28 * x_25 + 4.5 x_28 * x_26 + 19.5 x_28 * x_27 + 17.5 x_28 * x_28 + 13.0 x_28 * x_29 + 9.5 x_29 * x_1 + 17.0 x_29 * x_3 + 13.0 x_29 * x_5 + 10.0 x_29 * x_6 + 7.5 x_29 * x_7 + 17.5 x_29 * x_8 + 4.5 x_29 * x_9 - 14.5 x_29 * x_11 - 5.5 x_29 * x_12 - 14.0 x_29 * x_13 + 2.5 x_29 * x_14 - 8.0 x_29 * x_15 - 20.0 x_29 * x_16 + 3.0 x_29 * x_17 + 19.0 x_29 * x_18 + 12.5 x_29 * x_19 + 8.5 x_29 * x_20 + 15.0 x_29 * x_22 - 3.5 x_29 * x_23 - 16.5 x_29 * x_24 - 7.5 x_29 * x_25 - 13.5 x_29 * x_26 + 13.0 x_29 * x_28 - 10.0 x_29 * x_29 + 1.5 x_29 * x_30 + 24.5 x_30 * x_1 + 16.0 x_30 * x_2 - 16.5 x_30 * x_4 - 15.0 x_30 * x_5 + 21.5 x_30 * x_6 - 1.5 x_30 * x_8 + 24.0 x_30 * x_9 + 10.5 x_30 * x_10 + 1.0 x_30 * x_12 - 8.5 x_30 * x_14 + 3.5 x_30 * x_15 - 20.0 x_30 * x_17 + 2.5 x_30 * x_18 - 3.5 x_30 * x_19 + 21.0 x_30 * x_21 + 8.0 x_30 * x_24 + 5.0 x_30 * x_25 + 16.5 x_30 * x_27 + 1.5 x_30 * x_29 - 13.0 x_30 * x_30 ] - 13.0 x_1 + 27.0 x_2 + 12.0 x_3 + 17.0 x_4 - 25.0 x_5 + 33.0 x_6 - 16.0 x_7 + 11.0 x_8 - 31.0 x_9 - 36.0 x_10 + 0.0 x_11 + 0.0 x_12 + 0.0 x_13 + 17.0 x_14 + 11.0 x_15 + 0.0 x_16 - 35.0 x_17 + 6.0 x_18 + 12.0 x_19 + 20.0 x_20 + 12.0 x_21 - 27.0 x_22 + 29.0 x_23 + 0.0 x_24 - 20.0 x_25 - 7.0 x_26 - 6.0 x_27 - 16.0 x_28 - 16.0 x_29 + 34.0 x_30

Subject To

Bounds
 x_1 <= 1.0
 x_2 <= 1.0
 x_3 <= 1.0
 x_4 <= 1.0
 x_5 <= 1.0
 x_6 <= 1.0
 x_7 <= 1.0
 x_8 <= 1.0
 x_9 <= 1.0
 x_10 <= 1.0
 x_11 <= 1.0
 x_12 <= 1.0
 x_13 <= 1.0
 x_14 <= 1.0
 x_15 <= 1.0
 x_16 <= 1.0
 x_17 <= 1.0
 x_18 <= 1.0
 x_19 <= 1.0
 x_20 <= 1.0
 x_21 <= 1.0
 x_22 <= 1.0
 x_23 <= 1.0
 x_24 <= 1.0
 x_25 <= 1.0
 x_26 <= 1.0
 x_27 <= 1.0
 x_28 <= 1.0
 x_29 <= 1.0
 x_30 <= 1.0

End